job_count = 18 ;
duration = [|4, 2|4, 4|17, 7|11, 4|17, 3|4, 7|10, 7|19, 6|9, 4|12, 9|17, 6|9, 2|7, 8|8, 1|9, 1|10, 6|4, 8|7, 9|] ;
machine_count = 2 ;
cost = [|14, 24|12, 36|14, 30|16, 26|11, 33|17, 20|17, 24|17, 22|10, 39|14, 28|14, 31|15, 24|16, 24|11, 28|16, 25|17, 35|16, 32|12, 28|] ;
deadline = [45, 45, 45, 45, 45, 45, 45, 45, 45, 45, 45, 45, 45, 45, 45, 45, 45, 45] ;
release = [0, 0, 0, 0, 0, 0, 0, 0, 0, 0, 0, 0, 0, 0, 0, 0, 0, 0] ;
resource = [|9, 9|5, 5|6, 6|9, 9|6, 6|2, 2|3, 3|2, 2|4, 4|1, 1|3, 3|3, 3|7, 7|9, 9|9, 9|5, 5|9, 9|7, 7|] ;
capacities = [10, 10] ;
